NAME : jsyang 
COMMENT : Nodes generated by jsyang 
TYPE : TSP 
DIMENSION : 30 
EDGE_WEIGHT_TYPE : CEIL_2D 
NODE_COORD_SECTION
 1 294 -166
 2 551 -72
 3 665 -141
 4 690 -195
 5 610 -226
 6 223 -148
 7 296 -118
 8 160 -57
 9 338 -251
 10 121 -94
 11 404 -125
 12 651 -256
 13 513 -154
 14 406 -5
 15 641 -111
 16 247 -252
 17 573 -82
 18 444 -249
 19 235 -261
 20 440 -219
 21 396 -111
 22 199 -83
 23 627 -232
 24 322 -66
 25 213 -281
 26 139 -180
 27 462 -211
 28 248 -86
 29 45 -209
 30 228 -269
EOF
